db/inputs/39465039139882061122612222720128414.smt2
(set-logic QF_FP)
(declare-const x0 (_ FloatingPoint 8 24))
(declare-const x1 (_ FloatingPoint 8 24))
(declare-const x2 (_ FloatingPoint 8 24))
(declare-const x3 (_ FloatingPoint 8 24))
(declare-const x4 (_ FloatingPoint 8 24))
(declare-const x5 (_ FloatingPoint 8 24))
(declare-const x6 (_ FloatingPoint 8 24))
(declare-const x7 (_ FloatingPoint 8 24))
(declare-const x8 (_ FloatingPoint 8 24))
(assert (fp.lt (fp.add RNE (fp.sub RNE (fp.neg x5) (fp.neg x7)) (fp.add RNE (fp.sub RNE x2 x0) (fp.div RNE x8 x2))) (fp.sub RNE (fp.add RNE (fp.mul RNE x6 x4) (fp.sub RNE x1 x8)) (fp.add RNE (fp.sub RNE x5 x6) (fp.sub RNE x0 x4)))))
(check-sat)
