db/data/39465039139882061122612222720128414.z3.out
sat
-------------------
20.672646639
